(set-info :source |printed by MathSAT|)
(declare-fun param_init_a2 () Int)
(declare-fun call_ticket3i.ite13 () Int)
(declare-fun call_ticket3i.g5 () Bool)
(declare-fun call_ticket3i.a3 () Int)
(declare-fun param_e2 () Bool)
(declare-fun call_ticket3i.ite35 () Int)
(declare-fun param_e4 () Bool)
(declare-fun param_init_t () Int)
(declare-fun call_ticket3i.g2 () Bool)
(declare-fun call_ticket3i.ite10 () Int)
(declare-fun call_ticket3i.ite33 () Int)
(declare-fun call_ticket3i.ite29 () Int)
(declare-fun call_ticket3i.ite21 () Int)
(declare-fun call_ticket3i.ite15 () Int)
(declare-fun call_ticket3i.a1 () Int)
(declare-fun _OK_ () Bool)
(declare-fun param_e3 () Bool)
(declare-fun call_ticket3i.flby3 () Int)
(declare-fun call_Sofar.flby () Bool)
(declare-fun param_init_a3 () Int)
(declare-fun a2 () Int)
(declare-fun call_ticket3i.ite2 () Int)
(declare-fun call_ticket3i.ite27 () Int)
(declare-fun call_ticket3i.flby7 () Int)
(declare-fun param_e6 () Bool)
(declare-fun call_ticket3i.ite36 () Int)
(declare-fun s () Int)
(declare-fun p3 () Int)
(declare-fun param_e9 () Bool)
(declare-fun call_ticket3i.g3 () Bool)
(declare-fun call_ticket3i.p3 () Int)
(declare-fun call_ticket3i.ite6 () Int)
(declare-fun t () Int)
(declare-fun a1 () Int)
(declare-fun call_ticket3i.p2 () Int)
(declare-fun call_ticket3i.ite28 () Int)
(declare-fun p2 () Int)
(declare-fun call_ticket3i.ite14 () Int)
(declare-fun call_ticket3i.p1 () Int)
(declare-fun call_ticket3i.ite25 () Int)
(declare-fun param_e5 () Bool)
(declare-fun call_ticket3i.g1 () Bool)
(declare-fun call_ticket3i.g9 () Bool)
(declare-fun call_ticket3i.ite31 () Int)
(declare-fun call_ticket3i.ite9 () Int)
(declare-fun call_ticket3i.ite12 () Int)
(declare-fun call_ticket3i.ite5 () Int)
(declare-fun call_ticket3i.a2 () Int)
(declare-fun call_ticket3i.flby () Int)
(declare-fun call_ticket3i.g8 () Bool)
(declare-fun call_ticket3i.ite3 () Int)
(declare-fun call_ticket3i.ite23 () Int)
(declare-fun param_init_a1 () Int)
(declare-fun call_ticket3i.ite () Bool)
(declare-fun env () Bool)
(declare-fun a3 () Int)
(declare-fun call_ticket3i.ite24 () Int)
(declare-fun call_ticket3i.t () Int)
(declare-fun call_ticket3i.erreur_ticket3i () Bool)
(declare-fun call_ticket3i.ite18 () Int)
(declare-fun call_ticket3i.s () Int)
(declare-fun call_ticket3i.ite19 () Int)
(declare-fun call_ticket3i.ite34 () Int)
(declare-fun call_ticket3i.flby2 () Int)
(declare-fun call_ticket3i.ite4 () Int)
(declare-fun call_ticket3i.g7 () Bool)
(declare-fun param_e1 () Bool)
(declare-fun param_e7 () Bool)
(declare-fun call_ticket3i.ite8 () Int)
(declare-fun p1 () Int)
(declare-fun call_ticket3i.flby8 () Int)
(declare-fun call_ticket3i.flby4 () Int)
(declare-fun call_ticket3i.ite11 () Int)
(declare-fun call_ticket3i.flby5 () Int)
(declare-fun call_ticket3i.ite26 () Int)
(declare-fun param_e8 () Bool)
(declare-fun call_ticket3i.ite30 () Int)
(declare-fun call_ticket3i.ite7 () Int)
(declare-fun call_ticket3i.ite16 () Int)
(declare-fun call_Sofar.Sofar () Bool)
(declare-fun call_ticket3i.ite22 () Int)
(declare-fun call_excludes9.excludes () Bool)
(declare-fun call_ticket3i.ite37 () Int)
(declare-fun call_ticket3i.g6 () Bool)
(declare-fun call_ticket3i.ite32 () Int)
(declare-fun call_ticket3i.ite17 () Int)
(declare-fun call_ticket3i.flby6 () Int)
(declare-fun call_ticket3i.ite20 () Int)
(declare-fun call_ticket3i.g4 () Bool)
(declare-fun erreur_ticket3i () Bool)
(define-fun .def_1301 () Bool (= call_Sofar.flby call_Sofar.Sofar))
(define-fun .def_1165 () Bool (not param_e2))
(define-fun .def_952 () Bool (not param_e1))
(define-fun .def_1238 () Bool (and .def_952 .def_1165))
(define-fun .def_959 () Bool (not param_e3))
(define-fun .def_1239 () Bool (and .def_959 .def_1238))
(define-fun .def_966 () Bool (not param_e4))
(define-fun .def_1240 () Bool (and .def_966 .def_1239))
(define-fun .def_1197 () Bool (not param_e5))
(define-fun .def_1241 () Bool (and .def_1197 .def_1240))
(define-fun .def_973 () Bool (not param_e6))
(define-fun .def_1242 () Bool (and .def_973 .def_1241))
(define-fun .def_929 () Bool (not param_e7))
(define-fun .def_1243 () Bool (and .def_929 .def_1242))
(define-fun .def_1111 () Bool (not param_e8))
(define-fun .def_1244 () Bool (and .def_1111 .def_1243))
(define-fun .def_940 () Bool (not param_e9))
(define-fun .def_1289 () Bool (and .def_940 .def_1244))
(define-fun .def_1281 () Bool (and param_e1 .def_1165))
(define-fun .def_1282 () Bool (and .def_959 .def_1281))
(define-fun .def_1283 () Bool (and .def_966 .def_1282))
(define-fun .def_1284 () Bool (and .def_1197 .def_1283))
(define-fun .def_1285 () Bool (and .def_973 .def_1284))
(define-fun .def_1286 () Bool (and .def_929 .def_1285))
(define-fun .def_1287 () Bool (and .def_1111 .def_1286))
(define-fun .def_1288 () Bool (and .def_940 .def_1287))
(define-fun .def_1290 () Bool (or .def_1288 .def_1289))
(define-fun .def_1273 () Bool (and .def_952 param_e2))
(define-fun .def_1274 () Bool (and .def_959 .def_1273))
(define-fun .def_1275 () Bool (and .def_966 .def_1274))
(define-fun .def_1276 () Bool (and .def_1197 .def_1275))
(define-fun .def_1277 () Bool (and .def_973 .def_1276))
(define-fun .def_1278 () Bool (and .def_929 .def_1277))
(define-fun .def_1279 () Bool (and .def_1111 .def_1278))
(define-fun .def_1280 () Bool (and .def_940 .def_1279))
(define-fun .def_1291 () Bool (or .def_1280 .def_1290))
(define-fun .def_1266 () Bool (and param_e3 .def_1238))
(define-fun .def_1267 () Bool (and .def_966 .def_1266))
(define-fun .def_1268 () Bool (and .def_1197 .def_1267))
(define-fun .def_1269 () Bool (and .def_973 .def_1268))
(define-fun .def_1270 () Bool (and .def_929 .def_1269))
(define-fun .def_1271 () Bool (and .def_1111 .def_1270))
(define-fun .def_1272 () Bool (and .def_940 .def_1271))
(define-fun .def_1292 () Bool (or .def_1272 .def_1291))
(define-fun .def_1260 () Bool (and param_e4 .def_1239))
(define-fun .def_1261 () Bool (and .def_1197 .def_1260))
(define-fun .def_1262 () Bool (and .def_973 .def_1261))
(define-fun .def_1263 () Bool (and .def_929 .def_1262))
(define-fun .def_1264 () Bool (and .def_1111 .def_1263))
(define-fun .def_1265 () Bool (and .def_940 .def_1264))
(define-fun .def_1293 () Bool (or .def_1265 .def_1292))
(define-fun .def_1255 () Bool (and param_e5 .def_1240))
(define-fun .def_1256 () Bool (and .def_973 .def_1255))
(define-fun .def_1257 () Bool (and .def_929 .def_1256))
(define-fun .def_1258 () Bool (and .def_1111 .def_1257))
(define-fun .def_1259 () Bool (and .def_940 .def_1258))
(define-fun .def_1294 () Bool (or .def_1259 .def_1293))
(define-fun .def_1251 () Bool (and param_e6 .def_1241))
(define-fun .def_1252 () Bool (and .def_929 .def_1251))
(define-fun .def_1253 () Bool (and .def_1111 .def_1252))
(define-fun .def_1254 () Bool (and .def_940 .def_1253))
(define-fun .def_1295 () Bool (or .def_1254 .def_1294))
(define-fun .def_1248 () Bool (and param_e7 .def_1242))
(define-fun .def_1249 () Bool (and .def_1111 .def_1248))
(define-fun .def_1250 () Bool (and .def_940 .def_1249))
(define-fun .def_1296 () Bool (or .def_1250 .def_1295))
(define-fun .def_1246 () Bool (and param_e8 .def_1243))
(define-fun .def_1247 () Bool (and .def_940 .def_1246))
(define-fun .def_1297 () Bool (or .def_1247 .def_1296))
(define-fun .def_1245 () Bool (and param_e9 .def_1244))
(define-fun .def_1298 () Bool (or .def_1245 .def_1297))
(define-fun .def_1299 () Bool (= call_excludes9.excludes .def_1298))
(define-fun .def_1236 () Bool (= call_ticket3i.erreur_ticket3i call_ticket3i.ite))
(define-fun .def_1234 () Bool (= call_ticket3i.flby8 call_ticket3i.a3))
(define-fun .def_1232 () Bool (= call_ticket3i.flby7 call_ticket3i.a2))
(define-fun .def_1230 () Bool (= call_ticket3i.flby6 call_ticket3i.a1))
(define-fun .def_1228 () Bool (= call_ticket3i.flby5 call_ticket3i.s))
(define-fun .def_1226 () Bool (= call_ticket3i.flby4 call_ticket3i.t))
(define-fun .def_1224 () Bool (= call_ticket3i.flby3 call_ticket3i.p3))
(define-fun .def_1222 () Bool (= call_ticket3i.flby2 call_ticket3i.p2))
(define-fun .def_1219 () Bool (= call_ticket3i.flby call_ticket3i.p1))
(define-fun .def_1213 () Bool (<= 3 call_ticket3i.p3))
(define-fun .def_1211 () Bool (<= 3 call_ticket3i.p2))
(define-fun .def_1210 () Bool (<= 3 call_ticket3i.p1))
(define-fun .def_1212 () Bool (or .def_1210 .def_1211))
(define-fun .def_1214 () Bool (or .def_1212 .def_1213))
(define-fun .def_1216 () Bool (not .def_1214))
(define-fun .def_1217 () Bool (or call_ticket3i.ite .def_1216))
(define-fun .def_1209 () Bool (not call_ticket3i.ite))
(define-fun .def_1215 () Bool (or .def_1209 .def_1214))
(define-fun .def_1218 () Bool (and .def_1215 .def_1217))
(define-fun .def_1220 () Bool (and .def_1218 .def_1219))
(define-fun .def_1204 () Bool (= call_ticket3i.ite30 call_ticket3i.ite27))
(define-fun .def_1205 () Bool (or .def_973 .def_1204))
(define-fun .def_1201 () Bool (= call_ticket3i.ite29 call_ticket3i.ite30))
(define-fun .def_1202 () Bool (or param_e6 .def_1201))
(define-fun .def_1206 () Bool (and .def_1202 .def_1205))
(define-fun .def_1196 () Bool (= call_ticket3i.ite9 call_ticket3i.ite12))
(define-fun .def_1198 () Bool (or .def_1196 .def_1197))
(define-fun .def_1193 () Bool (= call_ticket3i.ite11 call_ticket3i.ite12))
(define-fun .def_1195 () Bool (or .def_1193 param_e5))
(define-fun .def_1199 () Bool (and .def_1195 .def_1198))
(define-fun .def_1189 () Bool (= call_ticket3i.ite23 call_ticket3i.ite24))
(define-fun .def_1190 () Bool (or param_e4 .def_1189))
(define-fun .def_1186 () Bool (= call_ticket3i.ite24 call_ticket3i.ite21))
(define-fun .def_1187 () Bool (or .def_966 .def_1186))
(define-fun .def_1182 () Bool (= call_ticket3i.ite8 call_ticket3i.ite13))
(define-fun .def_1183 () Bool (or .def_966 .def_1182))
(define-fun .def_1180 () Bool (= call_ticket3i.ite13 call_ticket3i.ite12))
(define-fun .def_1181 () Bool (or param_e4 .def_1180))
(define-fun .def_1184 () Bool (and .def_1181 .def_1183))
(define-fun .def_1188 () Bool (and .def_1184 .def_1187))
(define-fun .def_1191 () Bool (and .def_1188 .def_1190))
(define-fun .def_1174 () Bool (= call_ticket3i.ite31 call_ticket3i.ite26))
(define-fun .def_1175 () Bool (or .def_959 .def_1174))
(define-fun .def_1171 () Bool (= call_ticket3i.ite31 call_ticket3i.ite30))
(define-fun .def_1172 () Bool (or param_e3 .def_1171))
(define-fun .def_1176 () Bool (and .def_1172 .def_1175))
(define-fun .def_1164 () Bool (= call_ticket3i.ite3 call_ticket3i.ite6))
(define-fun .def_1166 () Bool (or .def_1164 .def_1165))
(define-fun .def_1161 () Bool (= call_ticket3i.ite5 call_ticket3i.ite6))
(define-fun .def_1163 () Bool (or .def_1161 param_e2))
(define-fun .def_1167 () Bool (and .def_1163 .def_1166))
(define-fun .def_1157 () Bool (= call_ticket3i.ite25 call_ticket3i.ite24))
(define-fun .def_1158 () Bool (or param_e1 .def_1157))
(define-fun .def_1153 () Bool (= call_ticket3i.ite20 call_ticket3i.ite25))
(define-fun .def_1154 () Bool (or .def_952 .def_1153))
(define-fun .def_1148 () Bool (= call_ticket3i.ite2 call_ticket3i.ite7))
(define-fun .def_1149 () Bool (or .def_952 .def_1148))
(define-fun .def_1146 () Bool (= call_ticket3i.ite7 call_ticket3i.ite6))
(define-fun .def_1147 () Bool (or param_e1 .def_1146))
(define-fun .def_1150 () Bool (and .def_1147 .def_1149))
(define-fun .def_1155 () Bool (and .def_1150 .def_1154))
(define-fun .def_1159 () Bool (and .def_1155 .def_1158))
(define-fun .def_1142 () Bool (= env call_Sofar.Sofar))
(define-fun .def_1139 () Bool (= erreur_ticket3i call_ticket3i.erreur_ticket3i))
(define-fun .def_1135 () Bool (= a3 call_ticket3i.a3))
(define-fun .def_1131 () Bool (= a2 call_ticket3i.a2))
(define-fun .def_1127 () Bool (= a1 call_ticket3i.a1))
(define-fun .def_1123 () Bool (= s call_ticket3i.s))
(define-fun .def_1119 () Bool (= call_ticket3i.t t))
(define-fun .def_1116 () Bool (= p3 call_ticket3i.p3))
(define-fun .def_1110 () Bool (= call_ticket3i.ite15 call_ticket3i.ite18))
(define-fun .def_1112 () Bool (or .def_1110 .def_1111))
(define-fun .def_1107 () Bool (= call_ticket3i.ite17 call_ticket3i.ite18))
(define-fun .def_1109 () Bool (or .def_1107 param_e8))
(define-fun .def_1113 () Bool (and .def_1109 .def_1112))
(define-fun .def_1105 () Bool (= p2 call_ticket3i.p2))
(define-fun .def_1102 () Bool (= p1 call_ticket3i.p1))
(define-fun .def_1097 () Bool (= call_ticket3i.ite14 call_ticket3i.ite19))
(define-fun .def_1098 () Bool (or .def_929 .def_1097))
(define-fun .def_1095 () Bool (= call_ticket3i.ite19 call_ticket3i.ite18))
(define-fun .def_1096 () Bool (or param_e7 .def_1095))
(define-fun .def_1099 () Bool (and .def_1096 .def_1098))
(define-fun .def_1087 () Int (+ p2 p3))
(define-fun .def_1088 () Int (+ p1 .def_1087))
(define-fun .def_1089 () Bool (<= .def_1088 8))
(define-fun .def_1083 () Bool (<= p3 3))
(define-fun .def_1081 () Bool (<= 0 p3))
(define-fun .def_1078 () Bool (<= p2 3))
(define-fun .def_1076 () Bool (<= 0 p2))
(define-fun .def_1073 () Bool (<= p1 3))
(define-fun .def_1072 () Bool (<= 0 p1))
(define-fun .def_1074 () Bool (and .def_1072 .def_1073))
(define-fun .def_1077 () Bool (and .def_1074 .def_1076))
(define-fun .def_1079 () Bool (and .def_1077 .def_1078))
(define-fun .def_1082 () Bool (and .def_1079 .def_1081))
(define-fun .def_1084 () Bool (and .def_1082 .def_1083))
(define-fun .def_1090 () Bool (and .def_1084 .def_1089))
(define-fun .def_1070 () Bool (not env))
(define-fun .def_1091 () Bool (or .def_1070 .def_1090))
(define-fun .def_1092 () Bool (= _OK_ .def_1091))
(define-fun .def_1100 () Bool (and .def_1092 .def_1099))
(define-fun .def_1103 () Bool (and .def_1100 .def_1102))
(define-fun .def_1106 () Bool (and .def_1103 .def_1105))
(define-fun .def_1114 () Bool (and .def_1106 .def_1113))
(define-fun .def_1117 () Bool (and .def_1114 .def_1116))
(define-fun .def_1120 () Bool (and .def_1117 .def_1119))
(define-fun .def_1124 () Bool (and .def_1120 .def_1123))
(define-fun .def_1128 () Bool (and .def_1124 .def_1127))
(define-fun .def_1132 () Bool (and .def_1128 .def_1131))
(define-fun .def_1136 () Bool (and .def_1132 .def_1135))
(define-fun .def_1140 () Bool (and .def_1136 .def_1139))
(define-fun .def_1143 () Bool (and .def_1140 .def_1142))
(define-fun .def_1160 () Bool (and .def_1143 .def_1159))
(define-fun .def_1168 () Bool (and .def_1160 .def_1167))
(define-fun .def_1177 () Bool (and .def_1168 .def_1176))
(define-fun .def_1192 () Bool (and .def_1177 .def_1191))
(define-fun .def_1200 () Bool (and .def_1192 .def_1199))
(define-fun .def_1207 () Bool (and .def_1200 .def_1206))
(define-fun .def_1221 () Bool (and .def_1207 .def_1220))
(define-fun .def_1223 () Bool (and .def_1221 .def_1222))
(define-fun .def_1225 () Bool (and .def_1223 .def_1224))
(define-fun .def_1227 () Bool (and .def_1225 .def_1226))
(define-fun .def_1229 () Bool (and .def_1227 .def_1228))
(define-fun .def_1231 () Bool (and .def_1229 .def_1230))
(define-fun .def_1233 () Bool (and .def_1231 .def_1232))
(define-fun .def_1235 () Bool (and .def_1233 .def_1234))
(define-fun .def_1237 () Bool (and .def_1235 .def_1236))
(define-fun .def_1300 () Bool (and .def_1237 .def_1299))
(define-fun .def_1302 () Bool (and .def_1300 .def_1301))
(define-fun .def_1063 () Bool (<= 0 param_init_t))
(define-fun .def_1061 () Bool (<= 0 param_init_a3))
(define-fun .def_1059 () Bool (<= 0 param_init_a2))
(define-fun .def_1056 () Bool (<= 0 param_init_a1))
(define-fun .def_1058 () Bool (and .def_1056 call_excludes9.excludes))
(define-fun .def_1060 () Bool (and .def_1058 .def_1059))
(define-fun .def_1062 () Bool (and .def_1060 .def_1061))
(define-fun .def_1064 () Bool (and .def_1062 .def_1063))
(define-fun .def_1066 () Bool (= .def_1064 call_Sofar.flby))
(define-fun .def_1054 () Bool (= param_init_a3 call_ticket3i.flby8))
(define-fun .def_1050 () Bool (= param_init_a2 call_ticket3i.flby7))
(define-fun .def_1046 () Bool (= param_init_a1 call_ticket3i.flby6))
(define-fun .def_1042 () Bool (= call_ticket3i.t call_ticket3i.flby5))
(define-fun .def_1038 () Bool (= param_init_t call_ticket3i.flby4))
(define-fun .def_1034 () Bool (= call_ticket3i.flby3 0))
(define-fun .def_1031 () Bool (= call_ticket3i.flby2 0))
(define-fun .def_1028 () Bool (= call_ticket3i.flby 0))
(define-fun .def_1024 () Bool (= call_ticket3i.ite16 0))
(define-fun .def_1023 () Bool (not call_ticket3i.g9))
(define-fun .def_1025 () Bool (or .def_1023 .def_1024))
(define-fun .def_1019 () Bool (= call_ticket3i.ite15 2))
(define-fun .def_1017 () Bool (not call_ticket3i.g8))
(define-fun .def_1020 () Bool (or .def_1017 .def_1019))
(define-fun .def_1013 () Bool (= call_ticket3i.ite14 1))
(define-fun .def_1011 () Bool (not call_ticket3i.g7))
(define-fun .def_1014 () Bool (or .def_1011 .def_1013))
(define-fun .def_1007 () Bool (= call_ticket3i.ite10 0))
(define-fun .def_1006 () Bool (not call_ticket3i.g6))
(define-fun .def_1008 () Bool (or .def_1006 .def_1007))
(define-fun .def_1002 () Bool (= call_ticket3i.ite9 2))
(define-fun .def_1000 () Bool (not call_ticket3i.g5))
(define-fun .def_1003 () Bool (or .def_1000 .def_1002))
(define-fun .def_996 () Bool (= call_ticket3i.ite8 1))
(define-fun .def_994 () Bool (not call_ticket3i.g4))
(define-fun .def_997 () Bool (or .def_994 .def_996))
(define-fun .def_990 () Bool (= call_ticket3i.ite4 0))
(define-fun .def_989 () Bool (not call_ticket3i.g3))
(define-fun .def_991 () Bool (or .def_989 .def_990))
(define-fun .def_985 () Bool (= call_ticket3i.ite3 2))
(define-fun .def_983 () Bool (not call_ticket3i.g2))
(define-fun .def_986 () Bool (or .def_983 .def_985))
(define-fun .def_979 () Bool (= call_ticket3i.ite2 1))
(define-fun .def_977 () Bool (not call_ticket3i.g1))
(define-fun .def_980 () Bool (or .def_977 .def_979))
(define-fun .def_971 () Bool (= call_ticket3i.ite10 call_ticket3i.ite11))
(define-fun .def_974 () Bool (or .def_971 .def_973))
(define-fun .def_964 () Bool (= call_ticket3i.ite35 call_ticket3i.ite34))
(define-fun .def_967 () Bool (or .def_964 .def_966))
(define-fun .def_957 () Bool (= call_ticket3i.ite4 call_ticket3i.ite5))
(define-fun .def_960 () Bool (or .def_957 .def_959))
(define-fun .def_950 () Bool (= call_ticket3i.ite33 call_ticket3i.ite32))
(define-fun .def_953 () Bool (or .def_950 .def_952))
(define-fun .def_944 () Bool (= call_ticket3i.ite16 call_ticket3i.ite17))
(define-fun .def_945 () Bool (or .def_940 .def_944))
(define-fun .def_938 () Bool (= call_ticket3i.ite28 call_ticket3i.ite29))
(define-fun .def_941 () Bool (or .def_938 .def_940))
(define-fun .def_946 () Bool (and .def_941 .def_945))
(define-fun .def_933 () Bool (= call_ticket3i.ite22 call_ticket3i.ite23))
(define-fun .def_934 () Bool (or .def_929 .def_933))
(define-fun .def_927 () Bool (= call_ticket3i.ite37 call_ticket3i.ite36))
(define-fun .def_930 () Bool (or .def_927 .def_929))
(define-fun .def_935 () Bool (and .def_930 .def_934))
(define-fun .def_947 () Bool (and .def_935 .def_946))
(define-fun .def_954 () Bool (and .def_947 .def_953))
(define-fun .def_961 () Bool (and .def_954 .def_960))
(define-fun .def_968 () Bool (and .def_961 .def_967))
(define-fun .def_975 () Bool (and .def_968 .def_974))
(define-fun .def_981 () Bool (and .def_975 .def_980))
(define-fun .def_987 () Bool (and .def_981 .def_986))
(define-fun .def_992 () Bool (and .def_987 .def_991))
(define-fun .def_998 () Bool (and .def_992 .def_997))
(define-fun .def_1004 () Bool (and .def_998 .def_1003))
(define-fun .def_1009 () Bool (and .def_1004 .def_1008))
(define-fun .def_1015 () Bool (and .def_1009 .def_1014))
(define-fun .def_1021 () Bool (and .def_1015 .def_1020))
(define-fun .def_1026 () Bool (and .def_1021 .def_1025))
(define-fun .def_1029 () Bool (and .def_1026 .def_1028))
(define-fun .def_1032 () Bool (and .def_1029 .def_1031))
(define-fun .def_1035 () Bool (and .def_1032 .def_1034))
(define-fun .def_1039 () Bool (and .def_1035 .def_1038))
(define-fun .def_1043 () Bool (and .def_1039 .def_1042))
(define-fun .def_1047 () Bool (and .def_1043 .def_1046))
(define-fun .def_1051 () Bool (and .def_1047 .def_1050))
(define-fun .def_1055 () Bool (and .def_1051 .def_1054))
(define-fun .def_1067 () Bool (and .def_1055 .def_1066))
(define-fun .def_1303 () Bool (and .def_1067 .def_1302))
(assert .def_1303)
